% From JaCoP's nonogramRepository/data008.nin
 rows = 25;
 row_rule_len = 4;
 row_rules = array2d(1..rows, 1..row_rule_len, 
[
 0,0,3,4,
 1,1,4,1,
 0,1,4,6,
 0,0,5,8,
 0,0,4,8,
 0,3,10,3,
 0,0,2,14,
 2,5,5,1,
 0,2,4,5,
 0,3,2,4,
 0,4,2,3,
 0,5,3,3,
 0,7,4,2,
 0,8,2,2,
 0,9,4,2,
 0,10,5,2,
 10,1,4,2,
 0,10,2,6,
 0,10,3,5,
 0,0,6,4,
 0,3,4,9,
 0,3,3,9,
 0,0,0,1,
 0,0,0,1,
 0,0,1,1
]);

 cols = 20;
 col_rule_len = 6;
 col_rules = array2d(1..cols, 1..col_rule_len, 
[
 0,0,0,0,0,20,
 0,0,0,0,1,17,
 0,0,0,1,4,12,
 0,0,0,3,3,12,
 0,0,0,2,5,11,
 0,0,2,6,8,1,
 0,0,1,6,7,1,
 0,0,0,8,6,2,
 0,0,0,7,5,2,
 0,0,7,1,4,2,
 0,0,0,6,2,3,
 0,5,1,1,3,2,
 0,6,2,2,2,2,
 1,3,1,3,1,2,
 0,0,2,1,4,2,
 0,0,4,2,4,2,
 0,0,0,5,1,7,
 0,0,0,1,5,5,
 0,0,0,0,0,14,
 0,0,0,0,15,1
]);

